NAME 
ROWS
 N  OBJ
 L  R0      
 E  R1      
 E  R2      
 E  R3      
 E  R4      
 E  R5      
 E  R6      
 E  R7      
 E  R8      
 E  R9      
 E  R10     
COLUMNS
    MARKER    'MARKER'                 'INTORG'
    I0(5)     OBJ       -113
    I0(5)     R0        148
    I0(5)     R1        19
    I0(5)     R4        11
    I0(5)     R5        2
    I0(5)     R10       1
    I1(4)     OBJ       -129
    I1(4)     R0        19
    I1(4)     R1        12
    I1(4)     R4        4
    I1(4)     R10       1
    I2(5)     OBJ       -8
    I2(5)     R0        92
    I2(5)     R1        17
    I2(5)     R2        17
    I2(5)     R4        7
    I2(5)     R10       1
    I3(4)     OBJ       51
    I3(4)     R0        -12
    I3(4)     R1        9
    I3(4)     R5        19
    I3(4)     R10       1
    I4(3)     OBJ       150
    I4(3)     R0        98
    I4(3)     R4        1
    I4(3)     R10       1
    MARKER    'MARKER'                 'INTEND'
    C5(7)     OBJ       -9
    C5(7)     R0        -1
    C5(7)     R2        15
    C5(7)     R3        14
    C5(7)     R4        12
    C5(7)     R6        1
    C5(7)     R8        8
    C5(7)     R9        7
    C6(7)     OBJ       -10
    C6(7)     R0        -6
    C6(7)     R2        19
    C6(7)     R3        14
    C6(7)     R5        16
    C6(7)     R6        10
    C6(7)     R7        14
    C6(7)     R8        8
    C7(8)     OBJ       3
    C7(8)     R0        8
    C7(8)     R1        10
    C7(8)     R3        16
    C7(8)     R4        5
    C7(8)     R6        8
    C7(8)     R7        8
    C7(8)     R8        11
    C7(8)     R9        2
    C8(9)     OBJ       -2
    C8(9)     R0        -1
    C8(9)     R1        19
    C8(9)     R3        4
    C8(9)     R4        9
    C8(9)     R5        7
    C8(9)     R6        12
    C8(9)     R7        5
    C8(9)     R8        18
    C8(9)     R9        12
    C9(8)     OBJ       -1
    C9(8)     R0        8
    C9(8)     R1        10
    C9(8)     R2        -1
    C9(8)     R4        9
    C9(8)     R5        15
    C9(8)     R6        18
    C9(8)     R7        17
    C9(8)     R8        3
    C10(1)    R1        1
    C11(1)    R2        1
    C12(1)    R3        1
    C13(1)    R4        1
    C14(1)    R5        1
    C15(1)    R6        1
    C16(1)    R7        1
    C17(1)    R8        1
    C18(1)    R9        1
    C19(1)    R10       1
RHS
    RHS1      R0        1.2411764705877298e+01
    RHS1      R1        63
    RHS1      R2        78
    RHS1      R3        63
    RHS1      R4        56
    RHS1      R5        64
    RHS1      R6        54
    RHS1      R7        88
    RHS1      R8        94
    RHS1      R9        65
    RHS1      R10       1
BOUNDS
 UP BND1      I0(5)     2
 UP BND1      I1(4)     2
 UP BND1      I2(5)     2
 UP BND1      I3(4)     2
 UP BND1      I4(3)     2
ENDATA
